
  32    1
  10

   0   0  10 2 3 4 5 6 7 8 9 10 15 
   8   1   7 30 27 24 18 14 13 11 
   8   4   7 27 25 21 20 19 17 16 
  10   6   7 30 28 27 25 21 20 12 
   1   5   6 30 29 28 26 25 12 
   2   4   8 29 28 27 26 25 24 23 18 
   5  10   4 30 23 18 13 
   3  10   6 28 27 25 24 23 22 
   9   6   5 30 29 26 24 23 
   8   8   5 29 27 26 24 22 
  10   7   4 28 25 22 19 
   1   6   3 24 18 16 
   5   6   3 31 26 22 
   8   5   3 28 25 23 
   2  10   3 27 25 22 
   1   5   2 23 22 
   5   5   2 29 26 
   4   9   1 22 
   8   3   1 23 
   3   6   1 24 
   6   7   1 22 
   6   5   1 32
   2   9   1 32
   1   7   1 32
   4   6   1 32
   7   5   1 32
   3   1   1 32
   5   5   1 32
  10   7   1 32
   4   4   1 32
   9   8   1 32
   0   0   0 
